n_nodes = 30;
edges = [
	{2, 3, 4, 5, 8, 9, 13, 14, 22, 28},
	{24, 3, 27, 4},
	{4, 8, 11, 12, 13, 15, 22, 23, 27, 30},
	{5, 6, 9, 13, 15, 28, 30},
	{6, 7, 8, 9, 10, 11, 12, 13, 15, 20, 28, 30},
	{7, 8, 9, 10, 11, 13, 23, 24, 26, 28},
	{8, 9, 11, 13, 20, 23, 24},
	{9, 10, 11, 13, 22, 23, 24, 26, 29},
	{10, 11, 12, 13, 15, 28},
	{11, 12, 15, 17, 28, 30},
	{12, 15, 16, 17, 21, 30},
	{28, 30, 15},
	{15, 22, 26, 27, 28},
	{15},
	{25, 28, 29, 30},
	{17, 19, 21, 29, 30},
	{26, 22, 30},
	{19, 20, 21},
	{21, 20, 29},
	{29, 21},
	{26, 27, 23},
	{23, 24, 25, 26, 27, 29},
	{24, 25, 26, 27, 28, 29},
	{26, 27},
	{26, 27, 28, 29, 30},
	{27, 28, 29, 30},
	{28, 29},
	{29, 30},
	{30},
	{ }
];